1062420
73,12,62,54,43,71,35,49,87,75,47,0,56,32,8,31,59,9,55,17,76,40,68,74,5,48,92,61,30,29,95,20,19,46,94,72,21,83,6,65,3,80,85,14,15,81,57,60,7,88,84,2,4,63,26,1,34,41,96,52,90,82,66,45,27,10,22,97,53,42,23,16,25,93,28,78,77,24,50,39,11,18,58,89,33,70,64,51,91,38,13,44,86,37,98,67,79,36,69,73